784 1512
1 2 4
1 29 2
2 3 5
2 30 5
3 4 1
3 31 3
4 5 5
4 32 4
5 6 5
5 33 3
6 7 5
6 34 5
7 8 1
7 35 4
8 9 5
8 36 1
9 10 4
9 37 2
10 11 5
10 38 5
11 12 1
11 39 4
12 13 3
12 40 1
13 14 5
13 41 3
14 15 2
14 42 5
15 16 4
15 43 1
16 17 1
16 44 5
17 18 4
17 45 2
18 19 3
18 46 3
19 20 3
19 47 1
20 21 5
20 48 3
21 22 4
21 49 1
22 23 2
22 50 5
23 24 4
23 51 5
24 25 4
24 52 4
25 26 4
25 53 5
26 27 1
26 54 1
27 28 4
27 55 3
28 56 4
29 30 4
29 57 1
30 31 1
30 58 5
31 32 5
31 59 1
32 33 3
32 60 3
33 34 3
33 61 1
34 35 1
34 62 1
35 36 1
35 63 3
36 37 5
36 64 5
37 38 4
37 65 5
38 39 3
38 66 2
39 40 1
39 67 3
40 41 1
40 68 1
41 42 5
41 69 1
42 43 2
42 70 1
43 44 4
43 71 3
44 45 4
44 72 1
45 46 4
45 73 5
46 47 4
46 74 4
47 48 3
47 75 3
48 49 5
48 76 3
49 50 4
49 77 3
50 51 5
50 78 2
51 52 2
51 79 3
52 53 2
52 80 3
53 54 1
53 81 5
54 55 4
54 82 3
55 56 1
55 83 4
56 84 3
57 58 3
57 85 4
58 59 3
58 86 4
59 60 3
59 87 5
60 61 4
60 88 4
61 62 2
61 89 2
62 63 1
62 90 3
63 64 5
63 91 4
64 65 5
64 92 1
65 66 5
65 93 5
66 67 5
66 94 2
67 68 5
67 95 5
68 69 3
68 96 2
69 70 3
69 97 1
70 71 4
70 98 5
71 72 5
71 99 5
72 73 4
72 100 2
73 74 1
73 101 2
74 75 3
74 102 1
75 76 2
75 103 5
76 77 5
76 104 3
77 78 4
77 105 5
78 79 4
78 106 1
79 80 2
79 107 1
80 81 3
80 108 4
81 82 5
81 109 5
82 83 3
82 110 5
83 84 1
83 111 5
84 112 2
85 86 2
85 113 2
86 87 2
86 114 4
87 88 1
87 115 5
88 89 5
88 116 5
89 90 3
89 117 3
90 91 2
90 118 4
91 92 3
91 119 1
92 93 1
92 120 5
93 94 4
93 121 3
94 95 4
94 122 2
95 96 2
95 123 2
96 97 1
96 124 4
97 98 3
97 125 1
98 99 4
98 126 5
99 100 2
99 127 1
100 101 2
100 128 4
101 102 4
101 129 5
102 103 3
102 130 4
103 104 2
103 131 4
104 105 5
104 132 1
105 106 5
105 133 1
106 107 2
106 134 4
107 108 5
107 135 1
108 109 3
108 136 3
109 110 4
109 137 3
110 111 4
110 138 2
111 112 4
111 139 3
112 140 1
113 114 5
113 141 3
114 115 2
114 142 5
115 116 3
115 143 3
116 117 2
116 144 4
117 118 3
117 145 1
118 119 1
118 146 5
119 120 1
119 147 3
120 121 1
120 148 5
121 122 2
121 149 3
122 123 5
122 150 3
123 124 2
123 151 5
124 125 4
124 152 2
125 126 1
125 153 4
126 127 5
126 154 2
127 128 4
127 155 2
128 129 4
128 156 4
129 130 3
129 157 3
130 131 1
130 158 3
131 132 5
131 159 2
132 133 1
132 160 5
133 134 4
133 161 5
134 135 4
134 162 3
135 136 3
135 163 3
136 137 2
136 164 4
137 138 2
137 165 1
138 139 4
138 166 1
139 140 2
139 167 3
140 168 3
141 142 5
141 169 1
142 143 1
142 170 4
143 144 2
143 171 5
144 145 2
144 172 3
145 146 3
145 173 3
146 147 4
146 174 4
147 148 1
147 175 5
148 149 3
148 176 1
149 150 5
149 177 3
150 151 4
150 178 5
151 152 4
151 179 1
152 153 4
152 180 1
153 154 4
153 181 4
154 155 2
154 182 1
155 156 4
155 183 2
156 157 3
156 184 3
157 158 4
157 185 1
158 159 5
158 186 4
159 160 5
159 187 1
160 161 5
160 188 2
161 162 5
161 189 1
162 163 4
162 190 2
163 164 1
163 191 5
164 165 3
164 192 1
165 166 1
165 193 5
166 167 5
166 194 1
167 168 3
167 195 4
168 196 5
169 170 2
169 197 5
170 171 2
170 198 5
171 172 2
171 199 1
172 173 2
172 200 3
173 174 5
173 201 5
174 175 2
174 202 2
175 176 1
175 203 3
176 177 2
176 204 1
177 178 1
177 205 4
178 179 5
178 206 3
179 180 4
179 207 1
180 181 4
180 208 5
181 182 5
181 209 4
182 183 5
182 210 1
183 184 4
183 211 1
184 185 5
184 212 5
185 186 3
185 213 5
186 187 1
186 214 1
187 188 5
187 215 4
188 189 2
188 216 3
189 190 5
189 217 3
190 191 3
190 218 4
191 192 5
191 219 3
192 193 5
192 220 3
193 194 2
193 221 1
194 195 3
194 222 3
195 196 1
195 223 4
196 224 3
197 198 2
197 225 5
198 199 5
198 226 5
199 200 4
199 227 5
200 201 2
200 228 4
201 202 4
201 229 2
202 203 3
202 230 5
203 204 1
203 231 2
204 205 1
204 232 4
205 206 1
205 233 5
206 207 5
206 234 4
207 208 3
207 235 4
208 209 5
208 236 2
209 210 1
209 237 2
210 211 4
210 238 4
211 212 5
211 239 1
212 213 5
212 240 1
213 214 1
213 241 1
214 215 1
214 242 4
215 216 2
215 243 5
216 217 4
216 244 2
217 218 1
217 245 3
218 219 5
218 246 3
219 220 1
219 247 4
220 221 3
220 248 5
221 222 3
221 249 4
222 223 2
222 250 3
223 224 5
223 251 2
224 252 3
225 226 4
225 253 1
226 227 1
226 254 4
227 228 4
227 255 4
228 229 4
228 256 1
229 230 5
229 257 4
230 231 1
230 258 1
231 232 5
231 259 5
232 233 5
232 260 5
233 234 3
233 261 5
234 235 1
234 262 3
235 236 5
235 263 2
236 237 3
236 264 5
237 238 2
237 265 2
238 239 2
238 266 3
239 240 5
239 267 3
240 241 1
240 268 1
241 242 4
241 269 5
242 243 4
242 270 2
243 244 4
243 271 5
244 245 3
244 272 4
245 246 2
245 273 2
246 247 4
246 274 4
247 248 3
247 275 4
248 249 3
248 276 5
249 250 5
249 277 3
250 251 1
250 278 1
251 252 5
251 279 1
252 280 5
253 254 4
253 281 3
254 255 5
254 282 3
255 256 4
255 283 2
256 257 3
256 284 3
257 258 3
257 285 5
258 259 3
258 286 2
259 260 3
259 287 5
260 261 5
260 288 2
261 262 1
261 289 5
262 263 1
262 290 3
263 264 5
263 291 3
264 265 4
264 292 5
265 266 4
265 293 2
266 267 2
266 294 5
267 268 2
267 295 3
268 269 3
268 296 3
269 270 4
269 297 2
270 271 5
270 298 5
271 272 4
271 299 5
272 273 3
272 300 3
273 274 4
273 301 3
274 275 1
274 302 5
275 276 2
275 303 5
276 277 3
276 304 2
277 278 1
277 305 1
278 279 5
278 306 1
279 280 2
279 307 3
280 308 2
281 282 2
281 309 3
282 283 4
282 310 1
283 284 4
283 311 3
284 285 2
284 312 4
285 286 4
285 313 4
286 287 5
286 314 2
287 288 1
287 315 3
288 289 1
288 316 1
289 290 2
289 317 5
290 291 2
290 318 2
291 292 4
291 319 2
292 293 5
292 320 2
293 294 4
293 321 1
294 295 2
294 322 2
295 296 2
295 323 4
296 297 2
296 324 3
297 298 3
297 325 2
298 299 3
298 326 2
299 300 5
299 327 2
300 301 3
300 328 4
301 302 2
301 329 3
302 303 3
302 330 5
303 304 4
303 331 1
304 305 2
304 332 5
305 306 4
305 333 5
306 307 2
306 334 2
307 308 2
307 335 1
308 336 5
309 310 3
309 337 3
310 311 3
310 338 3
311 312 5
311 339 5
312 313 4
312 340 5
313 314 5
313 341 4
314 315 2
314 342 2
315 316 4
315 343 1
316 317 3
316 344 1
317 318 2
317 345 4
318 319 2
318 346 1
319 320 3
319 347 4
320 321 4
320 348 3
321 322 5
321 349 3
322 323 3
322 350 1
323 324 1
323 351 1
324 325 2
324 352 1
325 326 4
325 353 4
326 327 5
326 354 2
327 328 5
327 355 3
328 329 5
328 356 5
329 330 3
329 357 1
330 331 5
330 358 1
331 332 3
331 359 4
332 333 2
332 360 4
333 334 1
333 361 4
334 335 1
334 362 4
335 336 3
335 363 3
336 364 3
337 338 1
337 365 5
338 339 5
338 366 1
339 340 2
339 367 1
340 341 5
340 368 3
341 342 1
341 369 5
342 343 1
342 370 2
343 344 5
343 371 4
344 345 4
344 372 3
345 346 5
345 373 1
346 347 2
346 374 4
347 348 5
347 375 1
348 349 4
348 376 2
349 350 4
349 377 5
350 351 1
350 378 4
351 352 5
351 379 4
352 353 5
352 380 4
353 354 5
353 381 1
354 355 5
354 382 2
355 356 4
355 383 5
356 357 1
356 384 1
357 358 3
357 385 5
358 359 1
358 386 1
359 360 4
359 387 4
360 361 5
360 388 1
361 362 4
361 389 3
362 363 2
362 390 4
363 364 1
363 391 1
364 392 5
365 366 2
365 393 3
366 367 2
366 394 2
367 368 3
367 395 2
368 369 5
368 396 2
369 370 2
369 397 5
370 371 4
370 398 1
371 372 2
371 399 4
372 373 3
372 400 3
373 374 2
373 401 4
374 375 1
374 402 4
375 376 2
375 403 4
376 377 2
376 404 5
377 378 1
377 405 1
378 379 1
378 406 3
379 380 5
379 407 5
380 381 5
380 408 3
381 382 5
381 409 4
382 383 2
382 410 3
383 384 4
383 411 4
384 385 3
384 412 3
385 386 1
385 413 3
386 387 5
386 414 3
387 388 5
387 415 2
388 389 5
388 416 4
389 390 1
389 417 4
390 391 5
390 418 1
391 392 1
391 419 5
392 420 2
393 394 5
393 421 3
394 395 3
394 422 4
395 396 1
395 423 5
396 397 1
396 424 4
397 398 2
397 425 5
398 399 3
398 426 2
399 400 2
399 427 3
400 401 5
400 428 5
401 402 2
401 429 2
402 403 2
402 430 5
403 404 5
403 431 1
404 405 2
404 432 5
405 406 4
405 433 1
406 407 5
406 434 2
407 408 1
407 435 5
408 409 1
408 436 3
409 410 1
409 437 3
410 411 1
410 438 3
411 412 5
411 439 3
412 413 5
412 440 3
413 414 4
413 441 4
414 415 3
414 442 4
415 416 2
415 443 2
416 417 5
416 444 2
417 418 3
417 445 5
418 419 2
418 446 3
419 420 1
419 447 1
420 448 3
421 422 1
421 449 1
422 423 4
422 450 5
423 424 4
423 451 1
424 425 5
424 452 5
425 426 4
425 453 5
426 427 4
426 454 3
427 428 3
427 455 2
428 429 2
428 456 2
429 430 3
429 457 5
430 431 4
430 458 4
431 432 3
431 459 3
432 433 3
432 460 4
433 434 3
433 461 2
434 435 1
434 462 5
435 436 1
435 463 5
436 437 1
436 464 1
437 438 4
437 465 4
438 439 1
438 466 4
439 440 1
439 467 3
440 441 4
440 468 3
441 442 3
441 469 3
442 443 2
442 470 3
443 444 4
443 471 4
444 445 1
444 472 3
445 446 5
445 473 5
446 447 2
446 474 5
447 448 1
447 475 2
448 476 3
449 450 2
449 477 4
450 451 2
450 478 2
451 452 5
451 479 2
452 453 5
452 480 4
453 454 2
453 481 3
454 455 5
454 482 4
455 456 2
455 483 3
456 457 5
456 484 5
457 458 1
457 485 4
458 459 3
458 486 5
459 460 2
459 487 1
460 461 3
460 488 1
461 462 1
461 489 2
462 463 1
462 490 2
463 464 5
463 491 5
464 465 5
464 492 5
465 466 2
465 493 2
466 467 3
466 494 4
467 468 5
467 495 4
468 469 4
468 496 4
469 470 1
469 497 4
470 471 1
470 498 1
471 472 2
471 499 5
472 473 3
472 500 3
473 474 1
473 501 4
474 475 3
474 502 5
475 476 5
475 503 4
476 504 2
477 478 3
477 505 4
478 479 2
478 506 2
479 480 4
479 507 1
480 481 4
480 508 4
481 482 3
481 509 3
482 483 4
482 510 3
483 484 3
483 511 5
484 485 3
484 512 5
485 486 2
485 513 4
486 487 4
486 514 1
487 488 5
487 515 4
488 489 5
488 516 5
489 490 3
489 517 4
490 491 4
490 518 3
491 492 1
491 519 4
492 493 1
492 520 2
493 494 5
493 521 2
494 495 2
494 522 2
495 496 4
495 523 1
496 497 2
496 524 4
497 498 5
497 525 5
498 499 3
498 526 2
499 500 5
499 527 3
500 501 4
500 528 3
501 502 5
501 529 1
502 503 4
502 530 1
503 504 1
503 531 5
504 532 5
505 506 1
505 533 2
506 507 3
506 534 2
507 508 2
507 535 1
508 509 4
508 536 4
509 510 4
509 537 4
510 511 4
510 538 4
511 512 4
511 539 5
512 513 4
512 540 2
513 514 2
513 541 4
514 515 2
514 542 4
515 516 4
515 543 5
516 517 5
516 544 4
517 518 1
517 545 1
518 519 3
518 546 2
519 520 2
519 547 1
520 521 1
520 548 1
521 522 4
521 549 2
522 523 3
522 550 3
523 524 1
523 551 4
524 525 4
524 552 5
525 526 1
525 553 4
526 527 5
526 554 4
527 528 3
527 555 3
528 529 2
528 556 5
529 530 4
529 557 1
530 531 3
530 558 3
531 532 4
531 559 4
532 560 2
533 534 3
533 561 1
534 535 3
534 562 5
535 536 3
535 563 5
536 537 1
536 564 1
537 538 1
537 565 4
538 539 5
538 566 4
539 540 3
539 567 1
540 541 1
540 568 5
541 542 1
541 569 1
542 543 5
542 570 5
543 544 2
543 571 1
544 545 2
544 572 2
545 546 5
545 573 4
546 547 3
546 574 1
547 548 2
547 575 2
548 549 3
548 576 1
549 550 4
549 577 1
550 551 3
550 578 3
551 552 1
551 579 4
552 553 4
552 580 3
553 554 5
553 581 2
554 555 3
554 582 5
555 556 1
555 583 5
556 557 4
556 584 5
557 558 1
557 585 3
558 559 2
558 586 4
559 560 1
559 587 2
560 588 3
561 562 2
561 589 5
562 563 2
562 590 5
563 564 1
563 591 5
564 565 2
564 592 3
565 566 3
565 593 1
566 567 4
566 594 2
567 568 3
567 595 3
568 569 1
568 596 5
569 570 4
569 597 3
570 571 5
570 598 3
571 572 4
571 599 3
572 573 5
572 600 1
573 574 5
573 601 5
574 575 1
574 602 2
575 576 2
575 603 1
576 577 2
576 604 3
577 578 5
577 605 4
578 579 1
578 606 2
579 580 1
579 607 5
580 581 3
580 608 1
581 582 5
581 609 4
582 583 2
582 610 3
583 584 1
583 611 1
584 585 5
584 612 2
585 586 5
585 613 3
586 587 4
586 614 3
587 588 5
587 615 3
588 616 3
589 590 4
589 617 4
590 591 3
590 618 2
591 592 3
591 619 5
592 593 4
592 620 5
593 594 1
593 621 1
594 595 4
594 622 3
595 596 5
595 623 1
596 597 4
596 624 3
597 598 5
597 625 1
598 599 2
598 626 4
599 600 1
599 627 4
600 601 5
600 628 2
601 602 4
601 629 4
602 603 3
602 630 3
603 604 1
603 631 4
604 605 2
604 632 2
605 606 5
605 633 2
606 607 2
606 634 1
607 608 3
607 635 4
608 609 1
608 636 4
609 610 4
609 637 3
610 611 5
610 638 2
611 612 2
611 639 4
612 613 3
612 640 4
613 614 4
613 641 4
614 615 1
614 642 1
615 616 2
615 643 3
616 644 2
617 618 2
617 645 2
618 619 1
618 646 5
619 620 3
619 647 2
620 621 5
620 648 5
621 622 2
621 649 3
622 623 2
622 650 5
623 624 3
623 651 4
624 625 4
624 652 3
625 626 3
625 653 1
626 627 3
626 654 3
627 628 4
627 655 1
628 629 3
628 656 2
629 630 2
629 657 1
630 631 2
630 658 5
631 632 5
631 659 5
632 633 2
632 660 4
633 634 2
633 661 4
634 635 3
634 662 4
635 636 3
635 663 2
636 637 3
636 664 3
637 638 2
637 665 2
638 639 5
638 666 5
639 640 5
639 667 4
640 641 3
640 668 4
641 642 1
641 669 5
642 643 5
642 670 1
643 644 1
643 671 4
644 672 5
645 646 1
645 673 4
646 647 2
646 674 1
647 648 4
647 675 2
648 649 1
648 676 5
649 650 1
649 677 2
650 651 2
650 678 4
651 652 1
651 679 4
652 653 5
652 680 1
653 654 3
653 681 3
654 655 1
654 682 1
655 656 5
655 683 5
656 657 4
656 684 5
657 658 5
657 685 5
658 659 3
658 686 4
659 660 3
659 687 2
660 661 1
660 688 1
661 662 5
661 689 5
662 663 2
662 690 5
663 664 1
663 691 3
664 665 3
664 692 5
665 666 3
665 693 2
666 667 4
666 694 1
667 668 4
667 695 4
668 669 2
668 696 5
669 670 3
669 697 4
670 671 5
670 698 2
671 672 1
671 699 4
672 700 5
673 674 4
673 701 2
674 675 4
674 702 3
675 676 2
675 703 2
676 677 2
676 704 2
677 678 2
677 705 2
678 679 2
678 706 2
679 680 1
679 707 2
680 681 2
680 708 5
681 682 2
681 709 2
682 683 4
682 710 1
683 684 4
683 711 3
684 685 3
684 712 4
685 686 4
685 713 4
686 687 1
686 714 1
687 688 5
687 715 2
688 689 2
688 716 1
689 690 4
689 717 2
690 691 5
690 718 3
691 692 3
691 719 5
692 693 2
692 720 3
693 694 4
693 721 1
694 695 1
694 722 5
695 696 5
695 723 5
696 697 5
696 724 3
697 698 3
697 725 2
698 699 3
698 726 1
699 700 1
699 727 5
700 728 4
701 702 3
701 729 2
702 703 3
702 730 3
703 704 1
703 731 4
704 705 1
704 732 3
705 706 1
705 733 5
706 707 5
706 734 3
707 708 3
707 735 2
708 709 2
708 736 5
709 710 4
709 737 1
710 711 2
710 738 3
711 712 2
711 739 4
712 713 3
712 740 2
713 714 2
713 741 3
714 715 1
714 742 1
715 716 3
715 743 5
716 717 4
716 744 1
717 718 5
717 745 1
718 719 2
718 746 5
719 720 5
719 747 1
720 721 5
720 748 4
721 722 5
721 749 4
722 723 2
722 750 1
723 724 2
723 751 2
724 725 5
724 752 5
725 726 3
725 753 2
726 727 5
726 754 3
727 728 4
727 755 2
728 756 2
729 730 3
729 757 3
730 731 5
730 758 5
731 732 3
731 759 4
732 733 4
732 760 5
733 734 3
733 761 1
734 735 3
734 762 1
735 736 1
735 763 5
736 737 1
736 764 1
737 738 5
737 765 3
738 739 4
738 766 4
739 740 4
739 767 3
740 741 5
740 768 5
741 742 2
741 769 5
742 743 2
742 770 3
743 744 1
743 771 1
744 745 4
744 772 2
745 746 3
745 773 1
746 747 1
746 774 4
747 748 3
747 775 3
748 749 3
748 776 2
749 750 5
749 777 2
750 751 5
750 778 4
751 752 2
751 779 3
752 753 4
752 780 4
753 754 4
753 781 5
754 755 4
754 782 4
755 756 2
755 783 2
756 784 5
757 758 2
758 759 3
759 760 5
760 761 1
761 762 1
762 763 2
763 764 2
764 765 1
765 766 2
766 767 5
767 768 1
768 769 4
769 770 5
770 771 5
771 772 3
772 773 5
773 774 2
774 775 2
775 776 5
776 777 2
777 778 1
778 779 1
779 780 2
780 781 3
781 782 1
782 783 4
783 784 2
